c File: flat50_3_0.col
c
c SOURCE: Joseph Culberson (joe@cs.ualberta.ca)
c DESCRIPTION: Quasi-random coloring problem
c              generated with flatness = 0
c                             probability = 0.139
c                             known coloring = 3
c                             random seed = 1148
c              Creation Date:  Tue Jun  9 12:02:19 1998
c Maximum degree = 8 Minimum degree = 0
c p edge 50 115
c cnf created by edge2cnf
p cnf 150 545
-1 -2 0
-1 -3 0
-2 -3 0
1 2 3 0
-4 -5 0
-4 -6 0
-5 -6 0
4 5 6 0
-7 -8 0
-7 -9 0
-8 -9 0
7 8 9 0
-10 -11 0
-10 -12 0
-11 -12 0
10 11 12 0
-13 -14 0
-13 -15 0
-14 -15 0
13 14 15 0
-16 -17 0
-16 -18 0
-17 -18 0
16 17 18 0
-19 -20 0
-19 -21 0
-20 -21 0
19 20 21 0
-22 -23 0
-22 -24 0
-23 -24 0
22 23 24 0
-25 -26 0
-25 -27 0
-26 -27 0
25 26 27 0
-28 -29 0
-28 -30 0
-29 -30 0
28 29 30 0
-31 -32 0
-31 -33 0
-32 -33 0
31 32 33 0
-34 -35 0
-34 -36 0
-35 -36 0
34 35 36 0
-37 -38 0
-37 -39 0
-38 -39 0
37 38 39 0
-40 -41 0
-40 -42 0
-41 -42 0
40 41 42 0
-43 -44 0
-43 -45 0
-44 -45 0
43 44 45 0
-46 -47 0
-46 -48 0
-47 -48 0
46 47 48 0
-49 -50 0
-49 -51 0
-50 -51 0
49 50 51 0
-52 -53 0
-52 -54 0
-53 -54 0
52 53 54 0
-55 -56 0
-55 -57 0
-56 -57 0
55 56 57 0
-58 -59 0
-58 -60 0
-59 -60 0
58 59 60 0
-61 -62 0
-61 -63 0
-62 -63 0
61 62 63 0
-64 -65 0
-64 -66 0
-65 -66 0
64 65 66 0
-67 -68 0
-67 -69 0
-68 -69 0
67 68 69 0
-70 -71 0
-70 -72 0
-71 -72 0
70 71 72 0
-73 -74 0
-73 -75 0
-74 -75 0
73 74 75 0
-76 -77 0
-76 -78 0
-77 -78 0
76 77 78 0
-79 -80 0
-79 -81 0
-80 -81 0
79 80 81 0
-82 -83 0
-82 -84 0
-83 -84 0
82 83 84 0
-85 -86 0
-85 -87 0
-86 -87 0
85 86 87 0
-88 -89 0
-88 -90 0
-89 -90 0
88 89 90 0
-91 -92 0
-91 -93 0
-92 -93 0
91 92 93 0
-94 -95 0
-94 -96 0
-95 -96 0
94 95 96 0
-97 -98 0
-97 -99 0
-98 -99 0
97 98 99 0
-100 -101 0
-100 -102 0
-101 -102 0
100 101 102 0
-103 -104 0
-103 -105 0
-104 -105 0
103 104 105 0
-106 -107 0
-106 -108 0
-107 -108 0
106 107 108 0
-109 -110 0
-109 -111 0
-110 -111 0
109 110 111 0
-112 -113 0
-112 -114 0
-113 -114 0
112 113 114 0
-115 -116 0
-115 -117 0
-116 -117 0
115 116 117 0
-118 -119 0
-118 -120 0
-119 -120 0
118 119 120 0
-121 -122 0
-121 -123 0
-122 -123 0
121 122 123 0
-124 -125 0
-124 -126 0
-125 -126 0
124 125 126 0
-127 -128 0
-127 -129 0
-128 -129 0
127 128 129 0
-130 -131 0
-130 -132 0
-131 -132 0
130 131 132 0
-133 -134 0
-133 -135 0
-134 -135 0
133 134 135 0
-136 -137 0
-136 -138 0
-137 -138 0
136 137 138 0
-139 -140 0
-139 -141 0
-140 -141 0
139 140 141 0
-142 -143 0
-142 -144 0
-143 -144 0
142 143 144 0
-145 -146 0
-145 -147 0
-146 -147 0
145 146 147 0
-148 -149 0
-148 -150 0
-149 -150 0
148 149 150 0
-64 -1 0
-65 -2 0
-66 -3 0
-94 -1 0
-95 -2 0
-96 -3 0
-100 -1 0
-101 -2 0
-102 -3 0
-103 -1 0
-104 -2 0
-105 -3 0
-109 -1 0
-110 -2 0
-111 -3 0
-127 -1 0
-128 -2 0
-129 -3 0
-142 -1 0
-143 -2 0
-144 -3 0
-55 -4 0
-56 -5 0
-57 -6 0
-61 -4 0
-62 -5 0
-63 -6 0
-76 -4 0
-77 -5 0
-78 -6 0
-130 -4 0
-131 -5 0
-132 -6 0
-55 -7 0
-56 -8 0
-57 -9 0
-70 -7 0
-71 -8 0
-72 -9 0
-79 -7 0
-80 -8 0
-81 -9 0
-100 -7 0
-101 -8 0
-102 -9 0
-121 -7 0
-122 -8 0
-123 -9 0
-124 -10 0
-125 -11 0
-126 -12 0
-64 -13 0
-65 -14 0
-66 -15 0
-82 -13 0
-83 -14 0
-84 -15 0
-91 -13 0
-92 -14 0
-93 -15 0
-127 -13 0
-128 -14 0
-129 -15 0
-133 -13 0
-134 -14 0
-135 -15 0
-136 -13 0
-137 -14 0
-138 -15 0
-52 -16 0
-53 -17 0
-54 -18 0
-64 -16 0
-65 -17 0
-66 -18 0
-79 -16 0
-80 -17 0
-81 -18 0
-97 -16 0
-98 -17 0
-99 -18 0
-103 -16 0
-104 -17 0
-105 -18 0
-121 -16 0
-122 -17 0
-123 -18 0
-124 -16 0
-125 -17 0
-126 -18 0
-79 -19 0
-80 -20 0
-81 -21 0
-103 -19 0
-104 -20 0
-105 -21 0
-112 -19 0
-113 -20 0
-114 -21 0
-139 -19 0
-140 -20 0
-141 -21 0
-142 -19 0
-143 -20 0
-144 -21 0
-85 -22 0
-86 -23 0
-87 -24 0
-109 -22 0
-110 -23 0
-111 -24 0
-112 -22 0
-113 -23 0
-114 -24 0
-118 -22 0
-119 -23 0
-120 -24 0
-55 -25 0
-56 -26 0
-57 -27 0
-97 -25 0
-98 -26 0
-99 -27 0
-100 -25 0
-101 -26 0
-102 -27 0
-112 -25 0
-113 -26 0
-114 -27 0
-115 -25 0
-116 -26 0
-117 -27 0
-52 -28 0
-53 -29 0
-54 -30 0
-70 -28 0
-71 -29 0
-72 -30 0
-73 -28 0
-74 -29 0
-75 -30 0
-85 -28 0
-86 -29 0
-87 -30 0
-109 -28 0
-110 -29 0
-111 -30 0
-55 -31 0
-56 -32 0
-57 -33 0
-76 -31 0
-77 -32 0
-78 -33 0
-94 -31 0
-95 -32 0
-96 -33 0
-139 -31 0
-140 -32 0
-141 -33 0
-148 -31 0
-149 -32 0
-150 -33 0
-52 -34 0
-53 -35 0
-54 -36 0
-61 -37 0
-62 -38 0
-63 -39 0
-70 -37 0
-71 -38 0
-72 -39 0
-100 -37 0
-101 -38 0
-102 -39 0
-130 -37 0
-131 -38 0
-132 -39 0
-139 -37 0
-140 -38 0
-141 -39 0
-142 -37 0
-143 -38 0
-144 -39 0
-64 -40 0
-65 -41 0
-66 -42 0
-76 -40 0
-77 -41 0
-78 -42 0
-88 -40 0
-89 -41 0
-90 -42 0
-97 -40 0
-98 -41 0
-99 -42 0
-148 -40 0
-149 -41 0
-150 -42 0
-85 -43 0
-86 -44 0
-87 -45 0
-118 -43 0
-119 -44 0
-120 -45 0
-127 -43 0
-128 -44 0
-129 -45 0
-130 -43 0
-131 -44 0
-132 -45 0
-103 -46 0
-104 -47 0
-105 -48 0
-133 -46 0
-134 -47 0
-135 -48 0
-148 -46 0
-149 -47 0
-150 -48 0
-73 -49 0
-74 -50 0
-75 -51 0
-85 -49 0
-86 -50 0
-87 -51 0
-124 -49 0
-125 -50 0
-126 -51 0
-127 -49 0
-128 -50 0
-129 -51 0
-136 -49 0
-137 -50 0
-138 -51 0
-103 -55 0
-104 -56 0
-105 -57 0
-106 -55 0
-107 -56 0
-108 -57 0
-118 -55 0
-119 -56 0
-120 -57 0
-121 -55 0
-122 -56 0
-123 -57 0
-103 -61 0
-104 -62 0
-105 -63 0
-121 -61 0
-122 -62 0
-123 -63 0
-142 -61 0
-143 -62 0
-144 -63 0
-148 -61 0
-149 -62 0
-150 -63 0
-127 -64 0
-128 -65 0
-129 -66 0
-103 -67 0
-104 -68 0
-105 -69 0
-109 -67 0
-110 -68 0
-111 -69 0
-121 -67 0
-122 -68 0
-123 -69 0
-127 -67 0
-128 -68 0
-129 -69 0
-115 -70 0
-116 -71 0
-117 -72 0
-145 -70 0
-146 -71 0
-147 -72 0
-106 -73 0
-107 -74 0
-108 -75 0
-124 -73 0
-125 -74 0
-126 -75 0
-127 -73 0
-128 -74 0
-129 -75 0
-145 -73 0
-146 -74 0
-147 -75 0
-118 -76 0
-119 -77 0
-120 -78 0
-121 -76 0
-122 -77 0
-123 -78 0
-115 -79 0
-116 -80 0
-117 -81 0
-124 -79 0
-125 -80 0
-126 -81 0
-106 -82 0
-107 -83 0
-108 -84 0
-130 -82 0
-131 -83 0
-132 -84 0
-130 -88 0
-131 -89 0
-132 -90 0
-133 -88 0
-134 -89 0
-135 -90 0
-142 -91 0
-143 -92 0
-144 -93 0
-148 -91 0
-149 -92 0
-150 -93 0
-130 -94 0
-131 -95 0
-132 -96 0
-133 -94 0
-134 -95 0
-135 -96 0
-148 -94 0
-149 -95 0
-150 -96 0
-106 -97 0
-107 -98 0
-108 -99 0
-112 -97 0
-113 -98 0
-114 -99 0
-133 -97 0
-134 -98 0
-135 -99 0
-145 -97 0
-146 -98 0
-147 -99 0
-115 -100 0
-116 -101 0
-117 -102 0
